outputs/case_419.model.txt
insurance_funds = 476000000
loan_secured_by_life_insurance_policy = False
issuer_equity = -1/10
pledged_loan_amount = 0
loan_secured_by_movable_or_immovable_property = False
total_loan_amount = 161226000
related_party_loan_amount = 161226000
foreign_investment_foreign_currency_deposit = True
board_attendance_ratio = 666667/10000
regulatory_threshold_amount = 100000000
board_approval_ratio = 75
foreign_investment_other_approved = False
investment_amount = 0
single_loan_amount = 161226000
foreign_investment_total_amount = 143000000
loan_guaranteed_by_bank_or_approved_credit_institution = False
loan_secured_by_qualified_securities = False
foreign_investment_foreign_securities = True
foreign_investment_approved_foreign_insurance_related = False
internal_control_and_audit_system_established = True
internal_handling_system_and_procedures_established = True
violation_of_loan_and_transaction_limit = False
internal_handling_system_established = True
related_party_loan_fully_secured = True
foreign_investment_total_limit_compliance = True
related_party_loan_guarantee_compliance = True
internal_control_and_audit_established = True
related_party_limit_follow_regulations = True
combined_investment_limit_compliance = False
loan_type_compliance = False
violation_of_internal_control_or_handling = False
related_party_loan_and_transaction_limit_compliance = True
related_party_loan_board_approval_compliance = True
violation_of_loan_guarantee_security = False
penalty = False
violation_of_loan_board_approval_or_limit = False
total_loan_limit_compliance = True
single_loan_limit_compliance = True
foreign_investment_type_compliance = True
related_party_loan_conditions_not_better_than_others = True